compatible = [
  {6,20,13,18},          % Task 1
  {6,11},                % Task 2
  {14,12,15,11,13,8},    % Task 3
  {6,20,13,12,10,8},     % Task 4
  {13,4},                % Task 5
  {8,9,10,12,18,17,3,4,6}, % Task 6
  {10,12,1,7},           % Task 7
  {11,15,19,20,10,2,5},  % Task 8
  {18,13,10},            % Task 9
  {20,11,5},             % Task 10
  {17,19,5},             % Task 11
  {15},                 % Task 12
  {15,20},              % Task 13
  {1},                  % Task 14
  {17,14,2,5,8},         % Task 15
  {17,2,3,4,6,7},        % Task 16
  {18,3,14},             % Task 17
  {20,4,6,10,12,15},     % Task 18
  {20,2,6,13,15},        % Task 19
  {20,4,8,13},           % Task 20
  {1},                  % Task 21
  {5,8,18},              % Task 22
  {9,11,13},             % Task 23
  {8,10,20},             % Task 24
  {14,19},               % Task 25
  {1,12},                % Task 26
  {2,12,14,17},          % Task 27
  {4,5,8,9,10,12,15},    % Task 28
  {9,10,11,14},          % Task 29
  {8,9,14,20}            % Task 30
];
